words_hard_train/9889.qaiger
aag 59 16 0 1 43
2
4
8
10
16
18
24
26
30
32
46
48
54
56
84
86
118
6 3 4
12 8 11
14 7 13
20 17 18
22 14 21
28 25 26
34 31 32
36 29 35
38 30 33
40 36 39
42 22 40
44 24 27
50 46 49
52 45 51
58 54 57
60 2 5
62 59 61
64 52 62
66 42 64
68 55 56
70 16 19
72 69 71
74 47 48
76 9 10
78 75 77
80 72 78
82 66 80
88 84 87
90 85 86
92 89 91
94 71 39
96 7 63
98 97 45
100 40 99
102 94 101
104 103 21
106 105 51
108 107 78
110 109 13
112 92 111
114 93 110
116 113 115
118 83 116
i0 2 y1[1]
i1 1 x1[1]
i2 2 y1[6]
i3 1 x1[6]
i4 2 y1[4]
i5 1 x1[4]
i6 2 y1[2]
i7 1 x1[2]
i8 2 y1[3]
i9 1 x1[3]
i10 2 y1[5]
i11 1 x1[5]
i12 2 y1[0]
i13 1 x1[0]
i14 2 y1[7]
i15 1 x1[7]
o0 bv[0]
c
simplified
  <=
    subtract
      2 y1
      add
        1
        1 x1
    invert
      1
