words_hard_train/9889.qaiger.qdimacs
p cnf 59 130
a 2 5 9 43 13 16 24 28 0
e 1 3 4 6 7 8 10 11 12 14 15 17 18 19 20 21 22 23 25 26 27 29 30 31 32 33 34 35 36 37 38 39 40 41 42 44 45 46 47 48 49 50 51 52 53 54 55 56 57 58 59 0
1 -2 3 0
-1 -3 0
2 -3 0
-4 5 6 0
4 -6 0
-5 -6 0
3 6 7 0
-3 -7 0
-6 -7 0
8 -9 10 0
-8 -10 0
9 -10 0
-7 10 11 0
7 -11 0
-10 -11 0
12 -13 14 0
-12 -14 0
13 -14 0
15 -16 17 0
-15 -17 0
16 -17 0
14 17 18 0
-14 -18 0
-17 -18 0
-15 16 19 0
15 -19 0
-16 -19 0
-18 19 20 0
18 -20 0
-19 -20 0
-11 -20 21 0
11 -21 0
20 -21 0
-12 13 22 0
12 -22 0
-13 -22 0
-23 24 25 0
23 -25 0
-24 -25 0
22 25 26 0
-22 -26 0
-25 -26 0
-27 28 29 0
27 -29 0
-28 -29 0
-1 2 30 0
1 -30 0
-2 -30 0
29 30 31 0
-29 -31 0
-30 -31 0
-26 -31 32 0
26 -32 0
31 -32 0
-21 -32 33 0
21 -33 0
32 -33 0
27 -28 34 0
-27 -34 0
28 -34 0
-8 9 35 0
8 -35 0
-9 -35 0
34 35 36 0
-34 -36 0
-35 -36 0
23 -24 37 0
-23 -37 0
24 -37 0
4 -5 38 0
-4 -38 0
5 -38 0
37 38 39 0
-37 -39 0
-38 -39 0
-36 -39 40 0
36 -40 0
39 -40 0
-33 -40 41 0
33 -41 0
40 -41 0
-42 43 44 0
42 -44 0
-43 -44 0
42 -43 45 0
-42 -45 0
43 -45 0
44 45 46 0
-44 -46 0
-45 -46 0
35 19 47 0
-35 -47 0
-19 -47 0
3 31 48 0
-3 -48 0
-31 -48 0
48 22 49 0
-48 -49 0
-22 -49 0
-20 49 50 0
20 -50 0
-49 -50 0
-47 50 51 0
47 -51 0
-50 -51 0
51 10 52 0
-51 -52 0
-10 -52 0
52 25 53 0
-52 -53 0
-25 -53 0
53 -39 54 0
-53 -54 0
39 -54 0
54 6 55 0
-54 -55 0
-6 -55 0
-46 55 56 0
46 -56 0
-55 -56 0
46 -55 57 0
-46 -57 0
55 -57 0
56 57 58 0
-56 -58 0
-57 -58 0
41 -58 59 0
-41 -59 0
58 -59 0
59 0
